19 40 40
24 41 5
53 10 13
44 3 20
17 60 11
31 11 58
5 15 32
14 17 24
3 47 21
19 56 28
40 17 30
13 46 47
44 41 5
42 59 57
32 53 5
29 50 9
44 61 14
61 62 3
12 22 55
7 46 32
7 11 4
62 22 41
12 62 6
9 30 48
56 23 7
57 17 53
53 35 62
44 19 55
53 41 52
14 62 38
53 36 50
38 30 46
